15
-1 116 369 879 213 665 366 144 497 364 143 401 201 778 273 
116 -1 347 764 128 562 262 228 397 309 62 410 243 662 181 
369 347 -1 765 242 474 292 301 656 106 407 112 207 778 239 
879 764 765 -1 684 303 529 942 570 663 766 874 888 253 628 
213 128 242 684 -1 453 158 258 426 185 179 328 222 622 60 
665 562 474 303 453 -1 300 694 544 379 585 580 625 416 392 
366 262 292 529 158 300 -1 413 387 190 290 402 362 492 99 
144 228 301 942 258 694 413 -1 625 338 276 296 94 874 313 
497 397 656 570 426 544 387 625 -1 567 353 753 630 363 416 
364 309 106 663 185 379 190 338 567 -1 363 219 255 671 158 
143 62 407 766 179 585 290 276 353 363 -1 472 301 644 223 
401 410 112 874 328 580 402 296 753 219 472 -1 206 890 339 
201 243 207 888 222 625 362 94 630 255 301 206 -1 844 267 
778 662 778 253 622 416 492 874 363 671 644 890 844 -1 578 
273 181 239 628 60 392 99 313 416 158 223 339 267 578 -1 
